p cnf 341 880
w 1 1
w 2 0.880797
w 3 0.880797
w 4 1
w 5 0.880797
w 6 0.880797
w 7 1
w 8 0.880797
w 9 0.880797
w 10 1
w 11 0.880797
w 12 0.880797
w 13 1
w 14 0.880797
w 15 0.880797
w 16 1
w 17 0.880797
w 18 0.880797
w 19 1
w 20 0.880797
w 21 0.880797
w 22 1
w 23 0.880797
w 24 0.880797
w 25 1
w 26 0.880797
w 27 0.880797
w 28 1
w 29 0.880797
w 30 0.880797
w 31 1
w 32 0.880797
w 33 1
w 34 0.880797
w 35 0.880797
w 36 1
w 37 0.880797
w 38 0.880797
w 39 1
w 40 0.880797
w 41 0.880797
w 42 1
w 43 0.880797
w 44 0.880797
w 45 1
w 46 0.880797
w 47 0.880797
w 48 1
w 49 0.880797
w 50 0.880797
w 51 1
w 52 0.880797
w 53 0.880797
w 54 1
w 55 0.880797
w 56 0.880797
w 57 1
w 58 0.880797
w 59 0.880797
w 60 1
w 61 0.880797
w 62 0.880797
w 63 1
w 64 0.880797
w 65 1
w 66 0.880797
w 67 0.880797
w 68 1
w 69 0.880797
w 70 0.880797
w 71 1
w 72 0.880797
w 73 0.880797
w 74 1
w 75 0.880797
w 76 0.880797
w 77 1
w 78 0.880797
w 79 0.880797
w 80 1
w 81 0.880797
w 82 0.880797
w 83 1
w 84 0.880797
w 85 0.880797
w 86 1
w 87 0.880797
w 88 0.880797
w 89 1
w 90 0.880797
w 91 0.880797
w 92 1
w 93 0.880797
w 94 0.880797
w 95 1
w 96 0.880797
w 97 1
w 98 0.880797
w 99 0.880797
w 100 1
w 101 0.880797
w 102 0.880797
w 103 1
w 104 0.880797
w 105 0.880797
w 106 1
w 107 0.880797
w 108 0.880797
w 109 1
w 110 0.880797
w 111 0.880797
w 112 1
w 113 0.880797
w 114 0.880797
w 115 1
w 116 0.880797
w 117 0.880797
w 118 1
w 119 0.880797
w 120 0.880797
w 121 1
w 122 0.880797
w 123 0.880797
w 124 1
w 125 0.880797
w 126 0.880797
w 127 1
w 128 0.880797
w 129 1
w 130 0.880797
w 131 0.880797
w 132 1
w 133 0.880797
w 134 0.880797
w 135 1
w 136 0.880797
w 137 0.880797
w 138 1
w 139 0.880797
w 140 0.880797
w 141 1
w 142 0.880797
w 143 0.880797
w 144 1
w 145 0.880797
w 146 0.880797
w 147 1
w 148 0.880797
w 149 0.880797
w 150 1
w 151 0.880797
w 152 0.880797
w 153 1
w 154 0.880797
w 155 0.880797
w 156 1
w 157 0.880797
w 158 0.880797
w 159 1
w 160 0.880797
w 161 1
w 162 0.880797
w 163 0.880797
w 164 1
w 165 0.880797
w 166 0.880797
w 167 1
w 168 0.880797
w 169 0.880797
w 170 1
w 171 0.880797
w 172 0.880797
w 173 1
w 174 0.880797
w 175 0.880797
w 176 1
w 177 0.880797
w 178 0.880797
w 179 1
w 180 0.880797
w 181 0.880797
w 182 1
w 183 0.880797
w 184 0.880797
w 185 1
w 186 0.880797
w 187 0.880797
w 188 1
w 189 0.880797
w 190 0.880797
w 191 1
w 192 0.880797
w 193 1
w 194 0.880797
w 195 0.880797
w 196 1
w 197 0.880797
w 198 0.880797
w 199 1
w 200 0.880797
w 201 0.880797
w 202 1
w 203 0.880797
w 204 0.880797
w 205 1
w 206 0.880797
w 207 0.880797
w 208 1
w 209 0.880797
w 210 0.880797
w 211 1
w 212 0.880797
w 213 0.880797
w 214 1
w 215 0.880797
w 216 0.880797
w 217 1
w 218 0.880797
w 219 0.880797
w 220 1
w 221 0.880797
w 222 0.880797
w 223 1
w 224 0.880797
w 225 1
w 226 0.880797
w 227 0.880797
w 228 1
w 229 0.880797
w 230 0.880797
w 231 1
w 232 0.880797
w 233 0.880797
w 234 1
w 235 0.880797
w 236 0.880797
w 237 1
w 238 0.880797
w 239 0.880797
w 240 1
w 241 0.880797
w 242 0.880797
w 243 1
w 244 0.880797
w 245 0.880797
w 246 1
w 247 0.880797
w 248 0.880797
w 249 1
w 250 0.880797
w 251 0.880797
w 252 1
w 253 0.880797
w 254 0.880797
w 255 1
w 256 0.880797
w 257 1
w 258 0.880797
w 259 0.880797
w 260 1
w 261 0.880797
w 262 0.880797
w 263 1
w 264 0.880797
w 265 0.880797
w 266 1
w 267 0.880797
w 268 0.880797
w 269 1
w 270 0.880797
w 271 0.880797
w 272 1
w 273 0.880797
w 274 0.880797
w 275 1
w 276 0.880797
w 277 0.880797
w 278 1
w 279 0.880797
w 280 0.880797
w 281 1
w 282 0.880797
w 283 0.880797
w 284 1
w 285 0.880797
w 286 0.880797
w 287 1
w 288 0.880797
w 289 1
w 290 0.880797
w 291 0.880797
w 292 1
w 293 0.880797
w 294 0.880797
w 295 1
w 296 0.880797
w 297 0.880797
w 298 1
w 299 0.880797
w 300 0.880797
w 301 1
w 302 0.880797
w 303 0.880797
w 304 1
w 305 0.880797
w 306 0.880797
w 307 1
w 308 0.880797
w 309 0.880797
w 310 1
w 311 0.880797
w 312 0.880797
w 313 1
w 314 0.880797
w 315 0.880797
w 316 1
w 317 0.880797
w 318 0.880797
w 319 1
w 320 0.880797
w 321 1
w 322 0.880797
w 323 1
w 324 0.880797
w 325 1
w 326 0.880797
w 327 1
w 328 0.880797
w 329 1
w 330 0.880797
w 331 1
w 332 0.880797
w 333 1
w 334 0.880797
w 335 1
w 336 0.880797
w 337 1
w 338 0.880797
w 339 1
w 340 0.880797
w 341 1
2 1 4 0
2 -1 -4 0
-2 1 -4 0
-2 -1 4 0
3 1 33 0
3 -1 -33 0
-3 1 -33 0
-3 -1 33 0
5 4 7 0
5 -4 -7 0
-5 4 -7 0
-5 -4 7 0
6 4 36 0
6 -4 -36 0
-6 4 -36 0
-6 -4 36 0
8 7 10 0
8 -7 -10 0
-8 7 -10 0
-8 -7 10 0
9 7 39 0
9 -7 -39 0
-9 7 -39 0
-9 -7 39 0
11 10 13 0
11 -10 -13 0
-11 10 -13 0
-11 -10 13 0
12 10 42 0
12 -10 -42 0
-12 10 -42 0
-12 -10 42 0
14 13 16 0
14 -13 -16 0
-14 13 -16 0
-14 -13 16 0
15 13 45 0
15 -13 -45 0
-15 13 -45 0
-15 -13 45 0
17 16 19 0
17 -16 -19 0
-17 16 -19 0
-17 -16 19 0
18 16 48 0
18 -16 -48 0
-18 16 -48 0
-18 -16 48 0
20 19 22 0
20 -19 -22 0
-20 19 -22 0
-20 -19 22 0
21 19 51 0
21 -19 -51 0
-21 19 -51 0
-21 -19 51 0
23 22 25 0
23 -22 -25 0
-23 22 -25 0
-23 -22 25 0
24 22 54 0
24 -22 -54 0
-24 22 -54 0
-24 -22 54 0
26 25 28 0
26 -25 -28 0
-26 25 -28 0
-26 -25 28 0
27 25 57 0
27 -25 -57 0
-27 25 -57 0
-27 -25 57 0
29 28 31 0
29 -28 -31 0
-29 28 -31 0
-29 -28 31 0
30 28 60 0
30 -28 -60 0
-30 28 -60 0
-30 -28 60 0
32 31 63 0
32 -31 -63 0
-32 31 -63 0
-32 -31 63 0
34 33 36 0
34 -33 -36 0
-34 33 -36 0
-34 -33 36 0
35 33 65 0
35 -33 -65 0
-35 33 -65 0
-35 -33 65 0
37 36 39 0
37 -36 -39 0
-37 36 -39 0
-37 -36 39 0
38 36 68 0
38 -36 -68 0
-38 36 -68 0
-38 -36 68 0
40 39 42 0
40 -39 -42 0
-40 39 -42 0
-40 -39 42 0
41 39 71 0
41 -39 -71 0
-41 39 -71 0
-41 -39 71 0
43 42 45 0
43 -42 -45 0
-43 42 -45 0
-43 -42 45 0
44 42 74 0
44 -42 -74 0
-44 42 -74 0
-44 -42 74 0
46 45 48 0
46 -45 -48 0
-46 45 -48 0
-46 -45 48 0
47 45 77 0
47 -45 -77 0
-47 45 -77 0
-47 -45 77 0
49 48 51 0
49 -48 -51 0
-49 48 -51 0
-49 -48 51 0
50 48 80 0
50 -48 -80 0
-50 48 -80 0
-50 -48 80 0
52 51 54 0
52 -51 -54 0
-52 51 -54 0
-52 -51 54 0
53 51 83 0
53 -51 -83 0
-53 51 -83 0
-53 -51 83 0
55 54 57 0
55 -54 -57 0
-55 54 -57 0
-55 -54 57 0
56 54 86 0
56 -54 -86 0
-56 54 -86 0
-56 -54 86 0
58 57 60 0
58 -57 -60 0
-58 57 -60 0
-58 -57 60 0
59 57 89 0
59 -57 -89 0
-59 57 -89 0
-59 -57 89 0
61 60 63 0
61 -60 -63 0
-61 60 -63 0
-61 -60 63 0
62 60 92 0
62 -60 -92 0
-62 60 -92 0
-62 -60 92 0
64 63 95 0
64 -63 -95 0
-64 63 -95 0
-64 -63 95 0
66 65 68 0
66 -65 -68 0
-66 65 -68 0
-66 -65 68 0
67 65 97 0
67 -65 -97 0
-67 65 -97 0
-67 -65 97 0
69 68 71 0
69 -68 -71 0
-69 68 -71 0
-69 -68 71 0
70 68 100 0
70 -68 -100 0
-70 68 -100 0
-70 -68 100 0
72 71 74 0
72 -71 -74 0
-72 71 -74 0
-72 -71 74 0
73 71 103 0
73 -71 -103 0
-73 71 -103 0
-73 -71 103 0
75 74 77 0
75 -74 -77 0
-75 74 -77 0
-75 -74 77 0
76 74 106 0
76 -74 -106 0
-76 74 -106 0
-76 -74 106 0
78 77 80 0
78 -77 -80 0
-78 77 -80 0
-78 -77 80 0
79 77 109 0
79 -77 -109 0
-79 77 -109 0
-79 -77 109 0
81 80 83 0
81 -80 -83 0
-81 80 -83 0
-81 -80 83 0
82 80 112 0
82 -80 -112 0
-82 80 -112 0
-82 -80 112 0
84 83 86 0
84 -83 -86 0
-84 83 -86 0
-84 -83 86 0
85 83 115 0
85 -83 -115 0
-85 83 -115 0
-85 -83 115 0
87 86 89 0
87 -86 -89 0
-87 86 -89 0
-87 -86 89 0
88 86 118 0
88 -86 -118 0
-88 86 -118 0
-88 -86 118 0
90 89 92 0
90 -89 -92 0
-90 89 -92 0
-90 -89 92 0
91 89 121 0
91 -89 -121 0
-91 89 -121 0
-91 -89 121 0
93 92 95 0
93 -92 -95 0
-93 92 -95 0
-93 -92 95 0
94 92 124 0
94 -92 -124 0
-94 92 -124 0
-94 -92 124 0
96 95 127 0
96 -95 -127 0
-96 95 -127 0
-96 -95 127 0
98 97 100 0
98 -97 -100 0
-98 97 -100 0
-98 -97 100 0
99 97 129 0
99 -97 -129 0
-99 97 -129 0
-99 -97 129 0
101 100 103 0
101 -100 -103 0
-101 100 -103 0
-101 -100 103 0
102 100 132 0
102 -100 -132 0
-102 100 -132 0
-102 -100 132 0
104 103 106 0
104 -103 -106 0
-104 103 -106 0
-104 -103 106 0
105 103 135 0
105 -103 -135 0
-105 103 -135 0
-105 -103 135 0
107 106 109 0
107 -106 -109 0
-107 106 -109 0
-107 -106 109 0
108 106 138 0
108 -106 -138 0
-108 106 -138 0
-108 -106 138 0
110 109 112 0
110 -109 -112 0
-110 109 -112 0
-110 -109 112 0
111 109 141 0
111 -109 -141 0
-111 109 -141 0
-111 -109 141 0
113 112 115 0
113 -112 -115 0
-113 112 -115 0
-113 -112 115 0
114 112 144 0
114 -112 -144 0
-114 112 -144 0
-114 -112 144 0
116 115 118 0
116 -115 -118 0
-116 115 -118 0
-116 -115 118 0
117 115 147 0
117 -115 -147 0
-117 115 -147 0
-117 -115 147 0
119 118 121 0
119 -118 -121 0
-119 118 -121 0
-119 -118 121 0
120 118 150 0
120 -118 -150 0
-120 118 -150 0
-120 -118 150 0
122 121 124 0
122 -121 -124 0
-122 121 -124 0
-122 -121 124 0
123 121 153 0
123 -121 -153 0
-123 121 -153 0
-123 -121 153 0
125 124 127 0
125 -124 -127 0
-125 124 -127 0
-125 -124 127 0
126 124 156 0
126 -124 -156 0
-126 124 -156 0
-126 -124 156 0
128 127 159 0
128 -127 -159 0
-128 127 -159 0
-128 -127 159 0
130 129 132 0
130 -129 -132 0
-130 129 -132 0
-130 -129 132 0
131 129 161 0
131 -129 -161 0
-131 129 -161 0
-131 -129 161 0
133 132 135 0
133 -132 -135 0
-133 132 -135 0
-133 -132 135 0
134 132 164 0
134 -132 -164 0
-134 132 -164 0
-134 -132 164 0
136 135 138 0
136 -135 -138 0
-136 135 -138 0
-136 -135 138 0
137 135 167 0
137 -135 -167 0
-137 135 -167 0
-137 -135 167 0
139 138 141 0
139 -138 -141 0
-139 138 -141 0
-139 -138 141 0
140 138 170 0
140 -138 -170 0
-140 138 -170 0
-140 -138 170 0
142 141 144 0
142 -141 -144 0
-142 141 -144 0
-142 -141 144 0
143 141 173 0
143 -141 -173 0
-143 141 -173 0
-143 -141 173 0
145 144 147 0
145 -144 -147 0
-145 144 -147 0
-145 -144 147 0
146 144 176 0
146 -144 -176 0
-146 144 -176 0
-146 -144 176 0
148 147 150 0
148 -147 -150 0
-148 147 -150 0
-148 -147 150 0
149 147 179 0
149 -147 -179 0
-149 147 -179 0
-149 -147 179 0
151 150 153 0
151 -150 -153 0
-151 150 -153 0
-151 -150 153 0
152 150 182 0
152 -150 -182 0
-152 150 -182 0
-152 -150 182 0
154 153 156 0
154 -153 -156 0
-154 153 -156 0
-154 -153 156 0
155 153 185 0
155 -153 -185 0
-155 153 -185 0
-155 -153 185 0
157 156 159 0
157 -156 -159 0
-157 156 -159 0
-157 -156 159 0
158 156 188 0
158 -156 -188 0
-158 156 -188 0
-158 -156 188 0
160 159 191 0
160 -159 -191 0
-160 159 -191 0
-160 -159 191 0
162 161 164 0
162 -161 -164 0
-162 161 -164 0
-162 -161 164 0
163 161 193 0
163 -161 -193 0
-163 161 -193 0
-163 -161 193 0
165 164 167 0
165 -164 -167 0
-165 164 -167 0
-165 -164 167 0
166 164 196 0
166 -164 -196 0
-166 164 -196 0
-166 -164 196 0
168 167 170 0
168 -167 -170 0
-168 167 -170 0
-168 -167 170 0
169 167 199 0
169 -167 -199 0
-169 167 -199 0
-169 -167 199 0
171 170 173 0
171 -170 -173 0
-171 170 -173 0
-171 -170 173 0
172 170 202 0
172 -170 -202 0
-172 170 -202 0
-172 -170 202 0
174 173 176 0
174 -173 -176 0
-174 173 -176 0
-174 -173 176 0
175 173 205 0
175 -173 -205 0
-175 173 -205 0
-175 -173 205 0
177 176 179 0
177 -176 -179 0
-177 176 -179 0
-177 -176 179 0
178 176 208 0
178 -176 -208 0
-178 176 -208 0
-178 -176 208 0
180 179 182 0
180 -179 -182 0
-180 179 -182 0
-180 -179 182 0
181 179 211 0
181 -179 -211 0
-181 179 -211 0
-181 -179 211 0
183 182 185 0
183 -182 -185 0
-183 182 -185 0
-183 -182 185 0
184 182 214 0
184 -182 -214 0
-184 182 -214 0
-184 -182 214 0
186 185 188 0
186 -185 -188 0
-186 185 -188 0
-186 -185 188 0
187 185 217 0
187 -185 -217 0
-187 185 -217 0
-187 -185 217 0
189 188 191 0
189 -188 -191 0
-189 188 -191 0
-189 -188 191 0
190 188 220 0
190 -188 -220 0
-190 188 -220 0
-190 -188 220 0
192 191 223 0
192 -191 -223 0
-192 191 -223 0
-192 -191 223 0
194 193 196 0
194 -193 -196 0
-194 193 -196 0
-194 -193 196 0
195 193 225 0
195 -193 -225 0
-195 193 -225 0
-195 -193 225 0
197 196 199 0
197 -196 -199 0
-197 196 -199 0
-197 -196 199 0
198 196 228 0
198 -196 -228 0
-198 196 -228 0
-198 -196 228 0
200 199 202 0
200 -199 -202 0
-200 199 -202 0
-200 -199 202 0
201 199 231 0
201 -199 -231 0
-201 199 -231 0
-201 -199 231 0
203 202 205 0
203 -202 -205 0
-203 202 -205 0
-203 -202 205 0
204 202 234 0
204 -202 -234 0
-204 202 -234 0
-204 -202 234 0
206 205 208 0
206 -205 -208 0
-206 205 -208 0
-206 -205 208 0
207 205 237 0
207 -205 -237 0
-207 205 -237 0
-207 -205 237 0
209 208 211 0
209 -208 -211 0
-209 208 -211 0
-209 -208 211 0
210 208 240 0
210 -208 -240 0
-210 208 -240 0
-210 -208 240 0
212 211 214 0
212 -211 -214 0
-212 211 -214 0
-212 -211 214 0
213 211 243 0
213 -211 -243 0
-213 211 -243 0
-213 -211 243 0
215 214 217 0
215 -214 -217 0
-215 214 -217 0
-215 -214 217 0
216 214 246 0
216 -214 -246 0
-216 214 -246 0
-216 -214 246 0
218 217 220 0
218 -217 -220 0
-218 217 -220 0
-218 -217 220 0
219 217 249 0
219 -217 -249 0
-219 217 -249 0
-219 -217 249 0
221 220 223 0
221 -220 -223 0
-221 220 -223 0
-221 -220 223 0
222 220 252 0
222 -220 -252 0
-222 220 -252 0
-222 -220 252 0
224 223 255 0
224 -223 -255 0
-224 223 -255 0
-224 -223 255 0
226 225 228 0
226 -225 -228 0
-226 225 -228 0
-226 -225 228 0
227 225 257 0
227 -225 -257 0
-227 225 -257 0
-227 -225 257 0
229 228 231 0
229 -228 -231 0
-229 228 -231 0
-229 -228 231 0
230 228 260 0
230 -228 -260 0
-230 228 -260 0
-230 -228 260 0
232 231 234 0
232 -231 -234 0
-232 231 -234 0
-232 -231 234 0
233 231 263 0
233 -231 -263 0
-233 231 -263 0
-233 -231 263 0
235 234 237 0
235 -234 -237 0
-235 234 -237 0
-235 -234 237 0
236 234 266 0
236 -234 -266 0
-236 234 -266 0
-236 -234 266 0
238 237 240 0
238 -237 -240 0
-238 237 -240 0
-238 -237 240 0
239 237 269 0
239 -237 -269 0
-239 237 -269 0
-239 -237 269 0
241 240 243 0
241 -240 -243 0
-241 240 -243 0
-241 -240 243 0
242 240 272 0
242 -240 -272 0
-242 240 -272 0
-242 -240 272 0
244 243 246 0
244 -243 -246 0
-244 243 -246 0
-244 -243 246 0
245 243 275 0
245 -243 -275 0
-245 243 -275 0
-245 -243 275 0
247 246 249 0
247 -246 -249 0
-247 246 -249 0
-247 -246 249 0
248 246 278 0
248 -246 -278 0
-248 246 -278 0
-248 -246 278 0
250 249 252 0
250 -249 -252 0
-250 249 -252 0
-250 -249 252 0
251 249 281 0
251 -249 -281 0
-251 249 -281 0
-251 -249 281 0
253 252 255 0
253 -252 -255 0
-253 252 -255 0
-253 -252 255 0
254 252 284 0
254 -252 -284 0
-254 252 -284 0
-254 -252 284 0
256 255 287 0
256 -255 -287 0
-256 255 -287 0
-256 -255 287 0
258 257 260 0
258 -257 -260 0
-258 257 -260 0
-258 -257 260 0
259 257 289 0
259 -257 -289 0
-259 257 -289 0
-259 -257 289 0
261 260 263 0
261 -260 -263 0
-261 260 -263 0
-261 -260 263 0
262 260 292 0
262 -260 -292 0
-262 260 -292 0
-262 -260 292 0
264 263 266 0
264 -263 -266 0
-264 263 -266 0
-264 -263 266 0
265 263 295 0
265 -263 -295 0
-265 263 -295 0
-265 -263 295 0
267 266 269 0
267 -266 -269 0
-267 266 -269 0
-267 -266 269 0
268 266 298 0
268 -266 -298 0
-268 266 -298 0
-268 -266 298 0
270 269 272 0
270 -269 -272 0
-270 269 -272 0
-270 -269 272 0
271 269 301 0
271 -269 -301 0
-271 269 -301 0
-271 -269 301 0
273 272 275 0
273 -272 -275 0
-273 272 -275 0
-273 -272 275 0
274 272 304 0
274 -272 -304 0
-274 272 -304 0
-274 -272 304 0
276 275 278 0
276 -275 -278 0
-276 275 -278 0
-276 -275 278 0
277 275 307 0
277 -275 -307 0
-277 275 -307 0
-277 -275 307 0
279 278 281 0
279 -278 -281 0
-279 278 -281 0
-279 -278 281 0
280 278 310 0
280 -278 -310 0
-280 278 -310 0
-280 -278 310 0
282 281 284 0
282 -281 -284 0
-282 281 -284 0
-282 -281 284 0
283 281 313 0
283 -281 -313 0
-283 281 -313 0
-283 -281 313 0
285 284 287 0
285 -284 -287 0
-285 284 -287 0
-285 -284 287 0
286 284 316 0
286 -284 -316 0
-286 284 -316 0
-286 -284 316 0
288 287 319 0
288 -287 -319 0
-288 287 -319 0
-288 -287 319 0
290 289 292 0
290 -289 -292 0
-290 289 -292 0
-290 -289 292 0
291 289 321 0
291 -289 -321 0
-291 289 -321 0
-291 -289 321 0
293 292 295 0
293 -292 -295 0
-293 292 -295 0
-293 -292 295 0
294 292 323 0
294 -292 -323 0
-294 292 -323 0
-294 -292 323 0
296 295 298 0
296 -295 -298 0
-296 295 -298 0
-296 -295 298 0
297 295 325 0
297 -295 -325 0
-297 295 -325 0
-297 -295 325 0
299 298 301 0
299 -298 -301 0
-299 298 -301 0
-299 -298 301 0
300 298 327 0
300 -298 -327 0
-300 298 -327 0
-300 -298 327 0
302 301 304 0
302 -301 -304 0
-302 301 -304 0
-302 -301 304 0
303 301 329 0
303 -301 -329 0
-303 301 -329 0
-303 -301 329 0
305 304 307 0
305 -304 -307 0
-305 304 -307 0
-305 -304 307 0
306 304 331 0
306 -304 -331 0
-306 304 -331 0
-306 -304 331 0
308 307 310 0
308 -307 -310 0
-308 307 -310 0
-308 -307 310 0
309 307 333 0
309 -307 -333 0
-309 307 -333 0
-309 -307 333 0
311 310 313 0
311 -310 -313 0
-311 310 -313 0
-311 -310 313 0
312 310 335 0
312 -310 -335 0
-312 310 -335 0
-312 -310 335 0
314 313 316 0
314 -313 -316 0
-314 313 -316 0
-314 -313 316 0
315 313 337 0
315 -313 -337 0
-315 313 -337 0
-315 -313 337 0
317 316 319 0
317 -316 -319 0
-317 316 -319 0
-317 -316 319 0
318 316 339 0
318 -316 -339 0
-318 316 -339 0
-318 -316 339 0
320 319 341 0
320 -319 -341 0
-320 319 -341 0
-320 -319 341 0
322 321 323 0
322 -321 -323 0
-322 321 -323 0
-322 -321 323 0
324 323 325 0
324 -323 -325 0
-324 323 -325 0
-324 -323 325 0
326 325 327 0
326 -325 -327 0
-326 325 -327 0
-326 -325 327 0
328 327 329 0
328 -327 -329 0
-328 327 -329 0
-328 -327 329 0
330 329 331 0
330 -329 -331 0
-330 329 -331 0
-330 -329 331 0
332 331 333 0
332 -331 -333 0
-332 331 -333 0
-332 -331 333 0
334 333 335 0
334 -333 -335 0
-334 333 -335 0
-334 -333 335 0
336 335 337 0
336 -335 -337 0
-336 335 -337 0
-336 -335 337 0
338 337 339 0
338 -337 -339 0
-338 337 -339 0
-338 -337 339 0
340 339 341 0
340 -339 -341 0
-340 339 -341 0
-340 -339 341 0
